N = 5;
H = 6;
T = 2;

avail = array3d(1..N, 1..H, 1..T, [9, 10, 1, 5, 3, 1, 4, 2, 9, 3, 10, 3, 7, 8, 8, 5, 1, 0, 4, 8, 0, 6, 10, 4, 7, 4, 4, 8, 1, 6, 9, 9, 3, 6, 4, 3, 6, 3, 8, 6, 1, 8, 1, 0, 5, 9, 7, 10, 6, 1, 7, 4, 6, 0, 9, 5, 3, 7, 7, 3]);

r = array2d(1..H, 1..T, [2, 0, 1, 1, 1, 0, 1, 0, 1, 2, 1, 0]);
